c generated by sgen
p cnf 121 252
-2 -3 -4 0
-1 -3 -4 0
-1 -2 -4 0
-1 -2 -3 0
-6 -7 -8 0
-5 -7 -8 0
-5 -6 -8 0
-5 -6 -7 0
-10 -11 -12 0
-9 -11 -12 0
-9 -10 -12 0
-9 -10 -11 0
-14 -15 -16 0
-13 -15 -16 0
-13 -14 -16 0
-13 -14 -15 0
-18 -19 -20 0
-17 -19 -20 0
-17 -18 -20 0
-17 -18 -19 0
-22 -23 -24 0
-21 -23 -24 0
-21 -22 -24 0
-21 -22 -23 0
-26 -27 -28 0
-25 -27 -28 0
-25 -26 -28 0
-25 -26 -27 0
-30 -31 -32 0
-29 -31 -32 0
-29 -30 -32 0
-29 -30 -31 0
-34 -35 -36 0
-33 -35 -36 0
-33 -34 -36 0
-33 -34 -35 0
-38 -39 -40 0
-37 -39 -40 0
-37 -38 -40 0
-37 -38 -39 0
-42 -43 -44 0
-41 -43 -44 0
-41 -42 -44 0
-41 -42 -43 0
-46 -47 -48 0
-45 -47 -48 0
-45 -46 -48 0
-45 -46 -47 0
-50 -51 -52 0
-49 -51 -52 0
-49 -50 -52 0
-49 -50 -51 0
-54 -55 -56 0
-53 -55 -56 0
-53 -54 -56 0
-53 -54 -55 0
-58 -59 -60 0
-57 -59 -60 0
-57 -58 -60 0
-57 -58 -59 0
-62 -63 -64 0
-61 -63 -64 0
-61 -62 -64 0
-61 -62 -63 0
-66 -67 -68 0
-65 -67 -68 0
-65 -66 -68 0
-65 -66 -67 0
-70 -71 -72 0
-69 -71 -72 0
-69 -70 -72 0
-69 -70 -71 0
-74 -75 -76 0
-73 -75 -76 0
-73 -74 -76 0
-73 -74 -75 0
-78 -79 -80 0
-77 -79 -80 0
-77 -78 -80 0
-77 -78 -79 0
-82 -83 -84 0
-81 -83 -84 0
-81 -82 -84 0
-81 -82 -83 0
-86 -87 -88 0
-85 -87 -88 0
-85 -86 -88 0
-85 -86 -87 0
-90 -91 -92 0
-89 -91 -92 0
-89 -90 -92 0
-89 -90 -91 0
-94 -95 -96 0
-93 -95 -96 0
-93 -94 -96 0
-93 -94 -95 0
-98 -99 -100 0
-97 -99 -100 0
-97 -98 -100 0
-97 -98 -99 0
-102 -103 -104 0
-101 -103 -104 0
-101 -102 -104 0
-101 -102 -103 0
-106 -107 -108 0
-105 -107 -108 0
-105 -106 -108 0
-105 -106 -107 0
-110 -111 -112 0
-109 -111 -112 0
-109 -110 -112 0
-109 -110 -111 0
-114 -115 -116 0
-113 -115 -116 0
-113 -114 -116 0
-113 -114 -115 0
-117 -118 -119 0
-117 -118 -120 0
-117 -118 -121 0
-117 -119 -120 0
-117 -119 -121 0
-117 -120 -121 0
-118 -119 -120 0
-118 -119 -121 0
-118 -120 -121 0
-119 -120 -121 0
45 4 65 0
75 4 65 0
75 45 65 0
75 45 4 0
61 9 102 0
13 9 102 0
13 61 102 0
13 61 9 0
119 26 104 0
32 26 104 0
32 119 104 0
32 119 26 0
24 91 78 0
11 91 78 0
11 24 78 0
11 24 91 0
54 68 12 0
57 68 12 0
57 54 12 0
57 54 68 0
83 116 20 0
15 116 20 0
15 83 20 0
15 83 116 0
79 58 108 0
70 58 108 0
70 79 108 0
70 79 58 0
22 113 47 0
94 113 47 0
94 22 47 0
94 22 113 0
14 41 30 0
46 41 30 0
46 14 30 0
46 14 41 0
69 19 23 0
120 19 23 0
120 69 23 0
120 69 19 0
67 5 16 0
121 5 16 0
121 67 16 0
121 67 5 0
64 90 37 0
51 90 37 0
51 64 37 0
51 64 90 0
89 72 48 0
99 72 48 0
99 89 48 0
99 89 72 0
49 118 96 0
10 118 96 0
10 49 96 0
10 49 118 0
82 28 8 0
59 28 8 0
59 82 8 0
59 82 28 0
25 50 110 0
88 50 110 0
88 25 110 0
88 25 50 0
29 36 92 0
87 36 92 0
87 29 92 0
87 29 36 0
21 105 43 0
109 105 43 0
109 21 43 0
109 21 105 0
98 86 44 0
60 86 44 0
60 98 44 0
60 98 86 0
42 38 66 0
17 38 66 0
17 42 66 0
17 42 38 0
73 71 111 0
103 71 111 0
103 73 111 0
103 73 71 0
114 39 31 0
7 39 31 0
7 114 31 0
7 114 39 0
85 107 40 0
81 107 40 0
81 85 40 0
81 85 107 0
93 18 56 0
27 18 56 0
27 93 56 0
27 93 18 0
6 74 63 0
55 74 63 0
55 6 63 0
55 6 74 0
97 95 62 0
1 95 62 0
1 97 62 0
1 97 95 0
35 52 3 0
84 52 3 0
84 35 3 0
84 35 52 0
115 112 117 0
80 112 117 0
80 115 117 0
80 115 112 0
100 33 106 0
76 33 106 0
76 100 106 0
76 100 33 0
101 77 53 0
101 77 34 0
101 77 2 0
101 53 34 0
101 53 2 0
101 34 2 0
77 53 34 0
77 53 2 0
77 34 2 0
53 34 2 0
